set type 1 mass 71.08
set type 2 mass 156.2
set type 3 mass 114.1
set type 4 mass 115.1
set type 5 mass 103.1
set type 6 mass 128.1
set type 7 mass 129.1
set type 8 mass 57.05
set type 9 mass 137.1
set type 10 mass 113.2
set type 11 mass 113.2
set type 12 mass 128.2
set type 13 mass 131.2
set type 14 mass 147.2
set type 15 mass 97.12
set type 16 mass 87.08
set type 17 mass 101.1
set type 18 mass 186.2
set type 19 mass 163.2
set type 20 mass 99.07
set type 21 mass 71.08
set type 22 mass 156.2
set type 23 mass 114.1
set type 24 mass 115.1
set type 25 mass 103.1
set type 26 mass 128.1
set type 27 mass 129.1
set type 28 mass 57.05
set type 29 mass 137.1
set type 30 mass 113.2
set type 31 mass 113.2
set type 32 mass 128.2
set type 33 mass 131.2
set type 34 mass 147.2
set type 35 mass 97.12
set type 36 mass 87.08
set type 37 mass 101.1
set type 38 mass 186.2
set type 39 mass 163.2
set type 40 mass 99.07
set type 41 mass 650.0
set type 42 mass 0.000001
pair_style ljlambda $l 20.34 $Q
dielectric  80.0

bond_style hybrid harmonic harmonic/DNA zero

bond_coeff 1 harmonic 10.0 3.8
bond_coeff 2 harmonic/DNA 0.0 0.0
bond_coeff 3 zero
bond_coeff 4 harmonic 10.0 4.165244435804461
bond_coeff 5 harmonic 10.0 6.09851912352499
bond_coeff 6 harmonic 10.0 5.4766127058611715
bond_coeff 7 harmonic 10.0 6.501500501422732
bond_coeff 8 harmonic 10.0 3.2127720880884167
bond_coeff 9 harmonic 10.0 5.214551825420862
bond_coeff 10 harmonic 10.0 5.380739625739197
bond_coeff 11 harmonic 10.0 6.60083587946254
bond_coeff 12 harmonic 10.0 7.287987064340881
bond_coeff 13 harmonic 10.0 6.60796738509657
bond_coeff 14 harmonic 10.0 7.2838466327895715
bond_coeff 15 harmonic 10.0 5.586930083229964
bond_coeff 16 harmonic 10.0 3.7423846688976297
bond_coeff 17 harmonic 10.0 5.098228465849681
bond_coeff 18 harmonic 10.0 4.719498720584633
bond_coeff 19 harmonic 10.0 6.8452477014056985
bond_coeff 20 harmonic 10.0 7.1807510366534775
bond_coeff 21 harmonic 10.0 6.099324340031441
bond_coeff 22 harmonic 10.0 6.086122713189408
bond_coeff 23 harmonic 10.0 4.675864987625282
bond_coeff 24 harmonic 10.0 7.464596877260014
bond_coeff 25 harmonic 10.0 5.468952841531911
bond_coeff 26 harmonic 10.0 6.9274896912590185
bond_coeff 27 harmonic 10.0 7.164078897869564
bond_coeff 28 harmonic 10.0 3.9286573966178358
bond_coeff 29 harmonic 10.0 4.903145174232555
bond_coeff 30 harmonic 10.0 5.206777878842154
bond_coeff 31 harmonic 10.0 5.81738858225063
bond_coeff 32 harmonic 10.0 7.492161831380846
bond_coeff 33 harmonic 10.0 6.757303927484688
bond_coeff 34 harmonic 10.0 3.5323921508801948
bond_coeff 35 harmonic 10.0 4.889454814966594
bond_coeff 36 harmonic 10.0 5.325177942087949
bond_coeff 37 harmonic 10.0 6.20921677073687
bond_coeff 38 harmonic 10.0 4.992173826390663
bond_coeff 39 harmonic 10.0 7.117687670226898
bond_coeff 40 harmonic 10.0 5.804586727821371
bond_coeff 41 harmonic 10.0 5.796985906874364
bond_coeff 42 harmonic 10.0 7.269912018209022
bond_coeff 43 harmonic 10.0 5.4213596147461045
bond_coeff 44 harmonic 10.0 7.093525594152741
bond_coeff 45 harmonic 10.0 6.346230534332956
bond_coeff 46 harmonic 10.0 6.707486866397876
bond_coeff 47 harmonic 10.0 3.308659112087551
bond_coeff 48 harmonic 10.0 5.935719994954277
bond_coeff 49 harmonic 10.0 5.495649660667973
bond_coeff 50 harmonic 10.0 5.279735719796967
bond_coeff 51 harmonic 10.0 5.762348318532994
bond_coeff 52 harmonic 10.0 6.731191098342108
bond_coeff 53 harmonic 10.0 5.374012457419503
bond_coeff 54 harmonic 10.0 7.358116776421056
bond_coeff 55 harmonic 10.0 5.327446663684208
bond_coeff 56 harmonic 10.0 6.280142022669551
bond_coeff 57 harmonic 10.0 6.665455064964131
bond_coeff 58 harmonic 10.0 2.6530445202446193
bond_coeff 59 harmonic 10.0 4.168734255874319
bond_coeff 60 harmonic 10.0 5.0092091937650185
bond_coeff 61 harmonic 10.0 6.080127201802608
bond_coeff 62 harmonic 10.0 5.299415217634867
bond_coeff 63 harmonic 10.0 6.018665620592328
bond_coeff 64 harmonic 10.0 5.562087176420379
bond_coeff 65 harmonic 10.0 3.3854965189909754
bond_coeff 66 harmonic 10.0 7.3825064025979685
bond_coeff 67 harmonic 10.0 7.0240071362506455
bond_coeff 68 harmonic 10.0 6.1953848086216565
bond_coeff 69 harmonic 10.0 7.185168694637587
bond_coeff 70 harmonic 10.0 3.4503002887429965
bond_coeff 71 harmonic 10.0 3.8569163341716397
bond_coeff 72 harmonic 10.0 5.203105648639086
bond_coeff 73 harmonic 10.0 7.17366397334723
bond_coeff 74 harmonic 10.0 5.786289485715351
bond_coeff 75 harmonic 10.0 6.965705843591803
bond_coeff 76 harmonic 10.0 6.22783592429987
bond_coeff 77 harmonic 10.0 4.552012042426955
bond_coeff 78 harmonic 10.0 6.435806095968089
bond_coeff 79 harmonic 10.0 5.660988619583685
bond_coeff 80 harmonic 10.0 2.5102176053880236
bond_coeff 81 harmonic 10.0 6.406715893193639
bond_coeff 82 harmonic 10.0 7.309444640114594
bond_coeff 83 harmonic 10.0 5.0509304014310095
bond_coeff 84 harmonic 10.0 6.551558969443837
bond_coeff 85 harmonic 10.0 7.3653701418577056
bond_coeff 86 harmonic 10.0 4.679673741501644
bond_coeff 87 harmonic 10.0 7.138119627072662
bond_coeff 88 harmonic 10.0 4.606286981648017
bond_coeff 89 harmonic 10.0 4.051401315804203
bond_coeff 90 harmonic 10.0 5.214597580715122
bond_coeff 91 harmonic 10.0 4.797393659227893
bond_coeff 92 harmonic 10.0 5.7487206533715
bond_coeff 93 harmonic 10.0 5.491496306226565
bond_coeff 94 harmonic 10.0 6.427657741183799
bond_coeff 95 harmonic 10.0 4.037761999003899
bond_coeff 96 harmonic 10.0 5.202647865462354
bond_coeff 97 harmonic 10.0 2.7814733024963547
bond_coeff 98 harmonic 10.0 4.643370508165376
bond_coeff 99 harmonic 10.0 6.589187550859362
bond_coeff 100 harmonic 10.0 7.090942038946588
bond_coeff 101 harmonic 10.0 6.382045879535808
bond_coeff 102 harmonic 10.0 7.466183599892252
bond_coeff 103 harmonic 10.0 7.072410538421042
bond_coeff 104 harmonic 10.0 7.4934997659571625
bond_coeff 105 harmonic 10.0 5.522444810452705
bond_coeff 106 harmonic 10.0 3.778470831963641
bond_coeff 107 harmonic 10.0 7.065900744370813
bond_coeff 108 harmonic 10.0 6.165976436972493
bond_coeff 109 harmonic 10.0 6.953824220663692
bond_coeff 110 harmonic 10.0 3.2714405534106845
bond_coeff 111 harmonic 10.0 4.782998779008833
bond_coeff 112 harmonic 10.0 5.277140270321304
bond_coeff 113 harmonic 10.0 6.7501496609186376
bond_coeff 114 harmonic 10.0 6.185120339661952
bond_coeff 115 harmonic 10.0 6.260657906202829
bond_coeff 116 harmonic 10.0 4.293271254509782
bond_coeff 117 harmonic 10.0 5.11153805194679
bond_coeff 118 harmonic 10.0 4.4932423583198835
bond_coeff 119 harmonic 10.0 6.77889219154576
bond_coeff 120 harmonic 10.0 5.051872594137744
bond_coeff 121 harmonic 10.0 7.3679845884010895
bond_coeff 122 harmonic 10.0 4.680041463758629
bond_coeff 123 harmonic 10.0 6.716791533209887
bond_coeff 124 harmonic 10.0 6.386653576529729
bond_coeff 125 harmonic 10.0 5.411473500350897
bond_coeff 126 harmonic 10.0 5.206760206932906
bond_coeff 127 harmonic 10.0 6.522148670749852
bond_coeff 128 harmonic 10.0 5.740892554569786
bond_coeff 129 harmonic 10.0 3.250435489115267
bond_coeff 130 harmonic 10.0 5.389329340558065
bond_coeff 131 harmonic 10.0 6.513403518471646
bond_coeff 132 harmonic 10.0 5.416739851312776
bond_coeff 133 harmonic 10.0 3.6552421429639925
bond_coeff 134 harmonic 10.0 6.886799434062243
bond_coeff 135 harmonic 10.0 4.228049344378565
bond_coeff 136 harmonic 10.0 5.367292901426189
bond_coeff 137 harmonic 10.0 6.730621319848563
bond_coeff 138 harmonic 10.0 7.380591074974958
bond_coeff 139 harmonic 10.0 3.6174185163732413
bond_coeff 140 harmonic 10.0 6.610315886037515
bond_coeff 141 harmonic 10.0 7.3661552274779005
bond_coeff 142 harmonic 10.0 3.6627782183200774
bond_coeff 143 harmonic 10.0 5.527626305612567
bond_coeff 144 harmonic 10.0 4.30453832243366
bond_coeff 145 harmonic 10.0 6.846099055813902
bond_coeff 146 harmonic 10.0 6.065626844920808
bond_coeff 147 harmonic 10.0 4.3364488806972
bond_coeff 148 harmonic 10.0 5.788160762668912
bond_coeff 149 harmonic 10.0 6.341460898901452
bond_coeff 150 harmonic 10.0 6.377671737230126
bond_coeff 151 harmonic 10.0 3.918985935621613
bond_coeff 152 harmonic 10.0 7.3931722166063505
bond_coeff 153 harmonic 10.0 6.781824338450533
bond_coeff 154 harmonic 10.0 6.667795566002305
bond_coeff 155 harmonic 10.0 5.007224173222126
bond_coeff 156 harmonic 10.0 6.402179591170496
bond_coeff 157 harmonic 10.0 6.713829000847731
bond_coeff 158 harmonic 10.0 4.921808838892064
bond_coeff 159 harmonic 10.0 7.099187479603846
bond_coeff 160 harmonic 10.0 3.9848536387676794
bond_coeff 161 harmonic 10.0 6.686133024708678
bond_coeff 162 harmonic 10.0 7.321762862863018
bond_coeff 163 harmonic 10.0 5.764872597169865
bond_coeff 164 harmonic 10.0 6.982296460914564
bond_coeff 165 harmonic 10.0 6.517976200393798
bond_coeff 166 harmonic 10.0 6.43054034684489
bond_coeff 167 harmonic 10.0 6.018203063073229
bond_coeff 168 harmonic 10.0 4.543600009890395
bond_coeff 169 harmonic 10.0 5.647935278418477
bond_coeff 170 harmonic 10.0 3.3707141010325987
bond_coeff 171 harmonic 10.0 6.627841978570401
bond_coeff 172 harmonic 10.0 7.129280161531035
bond_coeff 173 harmonic 10.0 7.199463697846458
bond_coeff 174 harmonic 10.0 7.0321458066422355
bond_coeff 175 harmonic 10.0 5.390745029854411
bond_coeff 176 harmonic 10.0 3.5934581075059184
bond_coeff 177 harmonic 10.0 7.15754750290908
bond_coeff 178 harmonic 10.0 6.218793817485831
bond_coeff 179 harmonic 10.0 3.9307246392491044
bond_coeff 180 harmonic 10.0 6.184417733052966
bond_coeff 181 harmonic 10.0 6.928393254572089
bond_coeff 182 harmonic 10.0 4.515638842777395
bond_coeff 183 harmonic 10.0 4.906080528089609
bond_coeff 184 harmonic 10.0 6.486909697722021
bond_coeff 185 harmonic 10.0 4.189813017653653
bond_coeff 186 harmonic 10.0 6.932796130775807
bond_coeff 187 harmonic 10.0 6.2585869677188315
bond_coeff 188 harmonic 10.0 6.405888981210961
bond_coeff 189 harmonic 10.0 5.069778935683881
bond_coeff 190 harmonic 10.0 5.508656485354299
bond_coeff 191 harmonic 10.0 6.296614764370139
bond_coeff 192 harmonic 10.0 3.396638893082396
bond_coeff 193 harmonic 10.0 5.833253856373817
bond_coeff 194 harmonic 10.0 5.391541408994277
bond_coeff 195 harmonic 10.0 5.302285117883515
bond_coeff 196 harmonic 10.0 5.606446907097223
bond_coeff 197 harmonic 10.0 5.963050616858454
bond_coeff 198 harmonic 10.0 5.906732421567785
bond_coeff 199 harmonic 10.0 2.7941962690727378
bond_coeff 200 harmonic 10.0 5.792067808865847
bond_coeff 201 harmonic 10.0 6.94096612817697
bond_coeff 202 harmonic 10.0 4.480629019334226
bond_coeff 203 harmonic 10.0 4.0156762531359504
bond_coeff 204 harmonic 10.0 5.223801544172598
bond_coeff 205 harmonic 10.0 3.820979521811126
bond_coeff 206 harmonic 10.0 1.9584322208337999
bond_coeff 207 harmonic 10.0 5.456704470095575
bond_coeff 208 harmonic 10.0 6.971601774061686
bond_coeff 209 harmonic 10.0 6.630524684038886
bond_coeff 210 harmonic 10.0 6.629608487874681
bond_coeff 211 harmonic 10.0 4.7013623812677965
bond_coeff 212 harmonic 10.0 6.379318723312075
bond_coeff 213 harmonic 10.0 6.079976530744178
bond_coeff 214 harmonic 10.0 5.515228120585766
bond_coeff 215 harmonic 10.0 4.006487144709687
bond_coeff 216 harmonic 10.0 6.708822352909337
bond_coeff 217 harmonic 10.0 3.4147148418132973
bond_coeff 218 harmonic 10.0 5.0730486675075355
bond_coeff 219 harmonic 10.0 5.6214326606416805
bond_coeff 220 harmonic 10.0 5.027642458260135
bond_coeff 221 harmonic 10.0 6.971470391733439
bond_coeff 222 harmonic 10.0 4.382778938538881
bond_coeff 223 harmonic 10.0 5.030044052739499
bond_coeff 224 harmonic 10.0 4.923500471463366
bond_coeff 225 harmonic 10.0 7.077768045111396
bond_coeff 226 harmonic 10.0 7.426714749362603
bond_coeff 227 harmonic 10.0 6.092254952552461
bond_coeff 228 harmonic 10.0 2.9755437049386444
bond_coeff 229 harmonic 10.0 4.185155814889096
bond_coeff 230 harmonic 10.0 5.058186983505058
bond_coeff 231 harmonic 10.0 3.069850883935571
bond_coeff 232 harmonic 10.0 3.317573232584478
bond_coeff 233 harmonic 10.0 6.343080700267028
bond_coeff 234 harmonic 10.0 7.231222469572415
bond_coeff 235 harmonic 10.0 6.937280595190022
bond_coeff 236 harmonic 10.0 6.585136828350645
bond_coeff 237 harmonic 10.0 6.049963003153325
bond_coeff 238 harmonic 10.0 3.390553348643843
bond_coeff 239 harmonic 10.0 4.942494524392413
bond_coeff 240 harmonic 10.0 5.112572344233865
bond_coeff 241 harmonic 10.0 6.858607284075833
bond_coeff 242 harmonic 10.0 5.892883493579352
bond_coeff 243 harmonic 10.0 3.134936451413327
bond_coeff 244 harmonic 10.0 6.299833903679998
bond_coeff 245 harmonic 10.0 7.296683664987812
bond_coeff 246 harmonic 10.0 5.473960780604843
bond_coeff 247 harmonic 10.0 4.303666525464072
bond_coeff 248 harmonic 10.0 3.247810811362017
bond_coeff 249 harmonic 10.0 4.658519700602328
bond_coeff 250 harmonic 10.0 7.155320387208385
bond_coeff 251 harmonic 10.0 6.020877154742489
bond_coeff 252 harmonic 10.0 6.905827768167985
bond_coeff 253 harmonic 10.0 5.3946735236620205
bond_coeff 254 harmonic 10.0 3.8047178478305064
bond_coeff 255 harmonic 10.0 5.170289555875957
bond_coeff 256 harmonic 10.0 4.885652791480376
bond_coeff 257 harmonic 10.0 1.8978847788000721
bond_coeff 258 harmonic 10.0 4.016420879539395
bond_coeff 259 harmonic 10.0 6.547468994868855
bond_coeff 260 harmonic 10.0 7.351064946659089
bond_coeff 261 harmonic 10.0 3.2250533290860486
bond_coeff 262 harmonic 10.0 5.814613532473588
bond_coeff 263 harmonic 10.0 6.390964102034538
bond_coeff 264 harmonic 10.0 5.537872472574647
bond_coeff 265 harmonic 10.0 3.1805891996452513
bond_coeff 266 harmonic 10.0 0.9596091873257575
bond_coeff 267 harmonic 10.0 3.7153114614465372
bond_coeff 268 harmonic 10.0 4.136483363788618
bond_coeff 269 harmonic 10.0 4.160771814651697
bond_coeff 270 harmonic 10.0 4.055845401935333
bond_coeff 271 harmonic 10.0 5.767919852806553
bond_coeff 272 harmonic 10.0 6.30664928412069
bond_coeff 273 harmonic 10.0 6.826416062444479
bond_coeff 274 harmonic 10.0 6.574986259978035
bond_coeff 275 harmonic 10.0 4.071508631404334
bond_coeff 276 harmonic 10.0 2.929500448472403
bond_coeff 277 harmonic 10.0 4.5644216048586
bond_coeff 278 harmonic 10.0 3.7599326611258586
bond_coeff 279 harmonic 10.0 2.094064704730972
bond_coeff 280 harmonic 10.0 4.72233612130363
bond_coeff 281 harmonic 10.0 5.393266872165702
bond_coeff 282 harmonic 10.0 6.724083827028035
bond_coeff 283 harmonic 10.0 7.169024997864075
bond_coeff 284 harmonic 10.0 5.6725731215740165
bond_coeff 285 harmonic 10.0 6.512255836044094
bond_coeff 286 harmonic 10.0 5.386996710863023
bond_coeff 287 harmonic 10.0 5.412356119211764
bond_coeff 288 harmonic 10.0 2.6357886241823354
bond_coeff 289 harmonic 10.0 1.755303489294372
bond_coeff 290 harmonic 10.0 5.1648920771618245
bond_coeff 291 harmonic 10.0 5.565110980015492
bond_coeff 292 harmonic 10.0 6.9356308556993564
bond_coeff 293 harmonic 10.0 6.704256637376661
bond_coeff 294 harmonic 10.0 4.6432463202687195
bond_coeff 295 harmonic 10.0 3.6926535882978473
bond_coeff 296 harmonic 10.0 3.8520626331569425
bond_coeff 297 harmonic 10.0 2.9641373268944564
bond_coeff 298 harmonic 10.0 1.7407885254676965
bond_coeff 299 harmonic 10.0 4.044197218179277
bond_coeff 300 harmonic 10.0 5.062722695361555
bond_coeff 301 harmonic 10.0 6.884734094406913
bond_coeff 302 harmonic 10.0 4.443462251313608
bond_coeff 303 harmonic 10.0 2.6953058443894133
bond_coeff 304 harmonic 10.0 6.115424350609287
bond_coeff 305 harmonic 10.0 6.632083410002093
bond_coeff 306 harmonic 10.0 4.981951331880409
bond_coeff 307 harmonic 10.0 6.786739590012349
bond_coeff 308 harmonic 10.0 7.419694728263757
bond_coeff 309 harmonic 10.0 6.10964978543165
bond_coeff 310 harmonic 10.0 7.026169552681245
bond_coeff 311 harmonic 10.0 4.610182463757367
bond_coeff 312 harmonic 10.0 4.138507365732843
bond_coeff 313 harmonic 10.0 6.128688646025673
bond_coeff 314 harmonic 10.0 5.731633957278238
bond_coeff 315 harmonic 10.0 5.344644633932641
bond_coeff 316 harmonic 10.0 4.462465478928898
bond_coeff 317 harmonic 10.0 5.875313776582702
bond_coeff 318 harmonic 10.0 5.736483164824639
bond_coeff 319 harmonic 10.0 6.991712499522776
bond_coeff 320 harmonic 10.0 6.905385921276067
bond_coeff 321 harmonic 10.0 6.661624197074896
bond_coeff 322 harmonic 10.0 4.405752881897815
bond_coeff 323 harmonic 10.0 6.596193484897482
bond_coeff 324 harmonic 10.0 7.090487530655768
bond_coeff 325 harmonic 10.0 6.63438318284391
bond_coeff 326 harmonic 10.0 6.939853024312612
bond_coeff 327 harmonic 10.0 6.678390990235096
bond_coeff 328 harmonic 10.0 4.059877635890028
bond_coeff 329 harmonic 10.0 5.260638611318974
bond_coeff 330 harmonic 10.0 4.634813324380608
bond_coeff 331 harmonic 10.0 6.456852954992856
bond_coeff 332 harmonic 10.0 4.017240115813341
bond_coeff 333 harmonic 10.0 4.996920118029609
bond_coeff 334 harmonic 10.0 5.6459899108039515
bond_coeff 335 harmonic 10.0 7.224224206965062
bond_coeff 336 harmonic 10.0 7.021937232815458
bond_coeff 337 harmonic 10.0 7.091644794467642
bond_coeff 338 harmonic 10.0 4.989008746043644
bond_coeff 339 harmonic 10.0 5.791992510293845
bond_coeff 340 harmonic 10.0 3.5905045790947
bond_coeff 341 harmonic 10.0 5.040563952703708
bond_coeff 342 harmonic 10.0 4.460739268506958
bond_coeff 343 harmonic 10.0 6.420725483533773
bond_coeff 344 harmonic 10.0 5.498848670412744
bond_coeff 345 harmonic 10.0 7.481415156780167
bond_coeff 346 harmonic 10.0 6.64329289581605
bond_coeff 347 harmonic 10.0 7.331146702399291
bond_coeff 348 harmonic 10.0 5.982669090305765
bond_coeff 349 harmonic 10.0 4.885646416483704
bond_coeff 350 harmonic 10.0 6.547522490136325
bond_coeff 351 harmonic 10.0 3.1612068481673257
bond_coeff 352 harmonic 10.0 6.229144728860378
bond_coeff 353 harmonic 10.0 6.070069806855603
bond_coeff 354 harmonic 10.0 5.887056031336882
bond_coeff 355 harmonic 10.0 6.6321129104456595
bond_coeff 356 harmonic 10.0 3.4495505762629435
bond_coeff 357 harmonic 10.0 4.8137845568845306
bond_coeff 358 harmonic 10.0 4.819062241183444
bond_coeff 359 harmonic 10.0 4.797777470204301
bond_coeff 360 harmonic 10.0 5.900253318426251
bond_coeff 361 harmonic 10.0 6.284932483177524
bond_coeff 362 harmonic 10.0 6.922108746624829
bond_coeff 363 harmonic 10.0 4.70387232879465
bond_coeff 364 harmonic 10.0 3.7005476535777815
bond_coeff 365 harmonic 10.0 4.457903058894392
bond_coeff 366 harmonic 10.0 3.1348886514900314
bond_coeff 367 harmonic 10.0 1.4553079077638542
bond_coeff 368 harmonic 10.0 4.128498852039201
bond_coeff 369 harmonic 10.0 5.459956882943309
bond_coeff 370 harmonic 10.0 6.8017882911848995
bond_coeff 371 harmonic 10.0 6.278916705642782
bond_coeff 372 harmonic 10.0 4.161701803831695
bond_coeff 373 harmonic 10.0 5.8042882892940435
bond_coeff 374 harmonic 10.0 7.445505206640848
bond_coeff 375 harmonic 10.0 7.390307858964739
bond_coeff 376 harmonic 10.0 4.628349207961302
bond_coeff 377 harmonic 10.0 4.72759282037867
bond_coeff 378 harmonic 10.0 5.493997153641872
bond_coeff 379 harmonic 10.0 3.5087727320013196
bond_coeff 380 harmonic 10.0 1.7651829757872126
bond_coeff 381 harmonic 10.0 2.4087739574555354
bond_coeff 382 harmonic 10.0 4.476044061089655
bond_coeff 383 harmonic 10.0 7.028137200449062
bond_coeff 384 harmonic 10.0 6.805260004697543
bond_coeff 385 harmonic 10.0 5.4530820153703905
bond_coeff 386 harmonic 10.0 4.091610344607611
bond_coeff 387 harmonic 10.0 5.783781300542059
bond_coeff 388 harmonic 10.0 7.2946400776529075
bond_coeff 389 harmonic 10.0 7.000966599184718
bond_coeff 390 harmonic 10.0 6.100003929416769
bond_coeff 391 harmonic 10.0 2.7661958332880223
bond_coeff 392 harmonic 10.0 5.981707501341067
bond_coeff 393 harmonic 10.0 7.479972899132789
bond_coeff 394 harmonic 10.0 5.39517143546894
bond_coeff 395 harmonic 10.0 5.91841708221455
bond_coeff 396 harmonic 10.0 3.574359331754433
bond_coeff 397 harmonic 10.0 5.180430540022712
bond_coeff 398 harmonic 10.0 6.719711461104557
bond_coeff 399 harmonic 10.0 3.6448276836635203
bond_coeff 400 harmonic 10.0 6.744030743969066
bond_coeff 401 harmonic 10.0 5.988433655172277
bond_coeff 402 harmonic 10.0 7.179310914349652
bond_coeff 403 harmonic 10.0 4.901255500338663
bond_coeff 404 harmonic 10.0 3.5784997981835915
bond_coeff 405 harmonic 10.0 4.14166553117221
bond_coeff 406 harmonic 10.0 3.4271778839739264
bond_coeff 407 harmonic 10.0 1.6282987870780914
bond_coeff 408 harmonic 10.0 3.7927726671789865
bond_coeff 409 harmonic 10.0 5.876289379674983
bond_coeff 410 harmonic 10.0 6.1750273756478204
bond_coeff 411 harmonic 10.0 7.04345300861793
bond_coeff 412 harmonic 10.0 6.271538131399665
bond_coeff 413 harmonic 10.0 5.613187710570528
bond_coeff 414 harmonic 10.0 6.477915185219705
bond_coeff 415 harmonic 10.0 7.423755471754173
bond_coeff 416 harmonic 10.0 6.627324190137677
bond_coeff 417 harmonic 10.0 4.036142088678246
bond_coeff 418 harmonic 10.0 5.894510305572467
bond_coeff 419 harmonic 10.0 5.4556679047482355
bond_coeff 420 harmonic 10.0 5.967117083223691
bond_coeff 421 harmonic 10.0 2.985003437920969
bond_coeff 422 harmonic 10.0 6.686294215400635
bond_coeff 423 harmonic 10.0 6.162264894249521
bond_coeff 424 harmonic 10.0 5.011164565248282
bond_coeff 425 harmonic 10.0 5.462537982330192
bond_coeff 426 harmonic 10.0 4.5278972793671
bond_coeff 427 harmonic 10.0 0.9007674496783291
bond_coeff 428 harmonic 10.0 3.5937773914921327
bond_coeff 429 harmonic 10.0 6.160789901473673
bond_coeff 430 harmonic 10.0 5.786706090977923
bond_coeff 431 harmonic 10.0 5.901685033073182
bond_coeff 432 harmonic 10.0 3.5612758363401196
bond_coeff 433 harmonic 10.0 6.100829425610914
bond_coeff 434 harmonic 10.0 6.38667248423622
bond_coeff 435 harmonic 10.0 5.623688938490467
bond_coeff 436 harmonic 10.0 2.779808322690612
bond_coeff 437 harmonic 10.0 6.793615669354576
bond_coeff 438 harmonic 10.0 6.846326786014526
bond_coeff 439 harmonic 10.0 5.321615869301353
bond_coeff 440 harmonic 10.0 7.059440230138648
bond_coeff 441 harmonic 10.0 5.297157642783531
bond_coeff 442 harmonic 10.0 3.6246647975226587
bond_coeff 443 harmonic 10.0 6.807157434024866
bond_coeff 444 harmonic 10.0 7.369538144151231
bond_coeff 445 harmonic 10.0 5.003989775785017
bond_coeff 446 harmonic 10.0 6.703655034501703
bond_coeff 447 harmonic 10.0 4.2623833040800045
bond_coeff 448 harmonic 10.0 5.34268425890956
bond_coeff 449 harmonic 10.0 4.827228722196618
bond_coeff 450 harmonic 10.0 4.83364137689175
bond_coeff 451 harmonic 10.0 6.818195573676366
bond_coeff 452 harmonic 10.0 5.94551434653891
bond_coeff 453 harmonic 10.0 6.225580443826985
bond_coeff 454 harmonic 10.0 6.3183460209219335
bond_coeff 455 harmonic 10.0 3.7475784434885413
bond_coeff 456 harmonic 10.0 6.330442398608488
bond_coeff 457 harmonic 10.0 6.717849319544161
bond_coeff 458 harmonic 10.0 3.854832835545532
bond_coeff 459 harmonic 10.0 5.334861839823035
bond_coeff 460 harmonic 10.0 3.9480175404878857
bond_coeff 461 harmonic 10.0 5.263703709328638
bond_coeff 462 harmonic 10.0 5.689388538815047
bond_coeff 463 harmonic 10.0 6.738146489361894
bond_coeff 464 harmonic 10.0 4.239386041350802
bond_coeff 465 harmonic 10.0 5.345382995969511
bond_coeff 466 harmonic 10.0 5.191079753779554
bond_coeff 467 harmonic 10.0 7.047373890577964
bond_coeff 468 harmonic 10.0 6.264664335588943
bond_coeff 469 harmonic 10.0 6.422663729045761
bond_coeff 470 harmonic 10.0 5.224897133733828
bond_coeff 471 harmonic 10.0 3.764810711045113
bond_coeff 472 harmonic 10.0 5.7733808338355805
bond_coeff 473 harmonic 10.0 5.133990209379052
bond_coeff 474 harmonic 10.0 5.583189877659544
bond_coeff 475 harmonic 10.0 3.1410982828463037
bond_coeff 476 harmonic 10.0 4.52178067800728
bond_coeff 477 harmonic 10.0 5.997103132346486
bond_coeff 478 harmonic 10.0 6.526186116170762
bond_coeff 479 harmonic 10.0 6.3931381200862525
bond_coeff 480 harmonic 10.0 4.765204066196955
bond_coeff 481 harmonic 10.0 5.381046051884342
bond_coeff 482 harmonic 10.0 4.495416745130536
bond_coeff 483 harmonic 10.0 6.389331073406669
bond_coeff 484 harmonic 10.0 6.174314376098775
bond_coeff 485 harmonic 10.0 3.5546524823110346
bond_coeff 486 harmonic 10.0 6.1110846214399634
bond_coeff 487 harmonic 10.0 2.6480818378592477
bond_coeff 488 harmonic 10.0 4.336306505875711
bond_coeff 489 harmonic 10.0 6.190252808577369
bond_coeff 490 harmonic 10.0 6.715145064732407
bond_coeff 491 harmonic 10.0 6.73923957375756
bond_coeff 492 harmonic 10.0 5.714785093850861
bond_coeff 493 harmonic 10.0 6.670592703800769
bond_coeff 494 harmonic 10.0 4.721921747011489
bond_coeff 495 harmonic 10.0 5.135193285369111
bond_coeff 496 harmonic 10.0 4.5973890386174645
bond_coeff 497 harmonic 10.0 5.857475348006172
bond_coeff 498 harmonic 10.0 7.146036388964161
bond_coeff 499 harmonic 10.0 3.352471034460994
bond_coeff 500 harmonic 10.0 4.763453278872378
bond_coeff 501 harmonic 10.0 3.077679333588865
bond_coeff 502 harmonic 10.0 5.662337390380407
bond_coeff 503 harmonic 10.0 5.202121731216986
bond_coeff 504 harmonic 10.0 5.806357219083233
bond_coeff 505 harmonic 10.0 7.058221346316649
bond_coeff 506 harmonic 10.0 5.662720690878196
bond_coeff 507 harmonic 10.0 3.9715914420921985
bond_coeff 508 harmonic 10.0 5.201027568048453
bond_coeff 509 harmonic 10.0 5.076951214025988
bond_coeff 510 harmonic 10.0 6.301433418112105
bond_coeff 511 harmonic 10.0 6.038158640810954
bond_coeff 512 harmonic 10.0 3.4996689049251515
bond_coeff 513 harmonic 10.0 5.8658585329344595
bond_coeff 514 harmonic 10.0 6.700704890960652
bond_coeff 515 harmonic 10.0 3.7280004370842
bond_coeff 516 harmonic 10.0 5.433701091162446
bond_coeff 517 harmonic 10.0 5.020890903176447
bond_coeff 518 harmonic 10.0 6.034350956048298
bond_coeff 519 harmonic 10.0 4.999662070190345
bond_coeff 520 harmonic 10.0 4.409414868256335
bond_coeff 521 harmonic 10.0 5.517747455266507
bond_coeff 522 harmonic 10.0 6.452537993776093
bond_coeff 523 harmonic 10.0 3.63510921657108
bond_coeff 524 harmonic 10.0 5.583028679319138
bond_coeff 525 harmonic 10.0 5.23464840702038
bond_coeff 526 harmonic 10.0 5.920074424059213
bond_coeff 527 harmonic 10.0 7.392200794249305
bond_coeff 528 harmonic 10.0 4.115683415533802
bond_coeff 529 harmonic 10.0 5.5707386337254245
bond_coeff 530 harmonic 10.0 4.901475742059737
bond_coeff 531 harmonic 10.0 6.053495371057039
bond_coeff 532 harmonic 10.0 5.162684750166333
bond_coeff 533 harmonic 10.0 5.449095127642751
bond_coeff 534 harmonic 10.0 3.9868877853334426
bond_coeff 535 harmonic 10.0 5.683702200757883
bond_coeff 536 harmonic 10.0 5.017062666051616
bond_coeff 537 harmonic 10.0 5.952907942350526
bond_coeff 538 harmonic 10.0 4.550204867871335
bond_coeff 539 harmonic 10.0 5.795748216097729
bond_coeff 540 harmonic 10.0 7.457045779556405
bond_coeff 541 harmonic 10.0 6.8630954796287105
bond_coeff 542 harmonic 10.0 4.767342628358488
bond_coeff 543 harmonic 10.0 6.653956121053098
bond_coeff 544 harmonic 10.0 3.9045821593713463
bond_coeff 545 harmonic 10.0 5.309998943111381
bond_coeff 546 harmonic 10.0 5.625172777791008
bond_coeff 547 harmonic 10.0 3.954731430755951
bond_coeff 548 harmonic 10.0 5.603497311465403
bond_coeff 549 harmonic 10.0 5.943343657874749
bond_coeff 550 harmonic 10.0 3.687296885504203
bond_coeff 551 harmonic 10.0 5.156391326930972
bond_coeff 552 harmonic 10.0 6.625474274903568
bond_coeff 553 harmonic 10.0 6.556033141603922
bond_coeff 554 harmonic 10.0 3.7555755247323943
bond_coeff 555 harmonic 10.0 7.496890803556432
bond_coeff 556 harmonic 10.0 3.586012231225653
bond_coeff 557 harmonic 10.0 6.931201686006547
bond_coeff 558 harmonic 10.0 5.817823311827613
bond_coeff 559 harmonic 10.0 5.590906928370388
bond_coeff 560 harmonic 10.0 7.378388583586527
bond_coeff 561 harmonic 10.0 6.73803469017487
bond_coeff 562 harmonic 10.0 4.1039094967603775
bond_coeff 563 harmonic 10.0 7.027959924216984
bond_coeff 564 harmonic 10.0 5.9301057496071685
bond_coeff 565 harmonic 10.0 5.677235528080194
bond_coeff 566 harmonic 10.0 5.241994690922917
bond_coeff 567 harmonic 10.0 4.6238395168274184
bond_coeff 568 harmonic 10.0 5.144998190398127
bond_coeff 569 harmonic 10.0 3.453390374052719
bond_coeff 570 harmonic 10.0 6.461645991734613
bond_coeff 571 harmonic 10.0 5.123139834757977
bond_coeff 572 harmonic 10.0 4.884839953588652
bond_coeff 573 harmonic 10.0 5.601140581801533
bond_coeff 574 harmonic 10.0 6.013398412606869
bond_coeff 575 harmonic 10.0 5.178819375649242
bond_coeff 576 harmonic 10.0 3.4019987251761306
bond_coeff 577 harmonic 10.0 6.048242866891179
bond_coeff 578 harmonic 10.0 4.528604433933703
bond_coeff 579 harmonic 10.0 4.653000996287879
bond_coeff 580 harmonic 10.0 6.89722032251718
bond_coeff 581 harmonic 10.0 3.932500919720172
bond_coeff 582 harmonic 10.0 6.979873695340054
bond_coeff 583 harmonic 10.0 7.325204407414171
bond_coeff 584 harmonic 10.0 5.509271966202431
bond_coeff 585 harmonic 10.0 4.715869725032277
bond_coeff 586 harmonic 10.0 4.016943326573081
bond_coeff 587 harmonic 10.0 6.8362847181491775
bond_coeff 588 harmonic 10.0 5.140139080958801
bond_coeff 589 harmonic 10.0 5.468300918733717
bond_coeff 590 harmonic 10.0 6.737967015071832
bond_coeff 591 harmonic 10.0 3.9998969067839716
bond_coeff 592 harmonic 10.0 6.961138571986627
bond_coeff 593 harmonic 10.0 6.657465821917525
bond_coeff 594 harmonic 10.0 4.481730588076443
bond_coeff 595 harmonic 10.0 6.742532338639842
bond_coeff 596 harmonic 10.0 3.7723486601983107
bond_coeff 597 harmonic 10.0 6.525683930439781
bond_coeff 598 harmonic 10.0 6.423056918858803
bond_coeff 599 harmonic 10.0 5.651931089318054
bond_coeff 600 harmonic 10.0 3.811623817495637
bond_coeff 601 harmonic 10.0 5.614484726170337
bond_coeff 602 harmonic 10.0 5.940552116604987
bond_coeff 603 harmonic 10.0 3.5344448501709587
bond_coeff 604 harmonic 10.0 6.012194130465184
bond_coeff 605 harmonic 10.0 3.8182544847220425
bond_coeff 606 harmonic 10.0 6.485679889634086
bond_coeff 607 harmonic 10.0 3.620189964472033
bond_coeff 608 harmonic 10.0 6.637248044401837
bond_coeff 609 harmonic 10.0 4.189911475976072
bond_coeff 610 harmonic 10.0 7.1617830691997355
bond_coeff 611 harmonic 10.0 3.5105209780293274
bond_coeff 612 harmonic 10.0 6.938875311835167
bond_coeff 613 harmonic 10.0 4.076159315214904
bond_coeff 614 harmonic 10.0 6.507924449308246
bond_coeff 615 harmonic 10.0 3.4232022408532643
bond_coeff 616 harmonic 10.0 5.087874654362072
bond_coeff 617 harmonic 10.0 3.539686558665893